80 14048778
50 45 78 37 59 72 40 4 7 58 60 64 53 36 28 32 6 5 22 13 34 42 10 65 31 1 15 51 75 70 39 71 69 19 54 35 18 56 77 66 62 68 74 43 44 11 23 14 76 55 9 63 3 2 49 57 48 47 73 30 29 24 67 79 52 12 27 21 38 46 17 41 16 8 26 80 61 33 25 20 
